NAME : GeneratedInstance
TYPE : TSP
DIMENSION : 20
EDGE_WEIGHT_TYPE : EUC_2D
NODE_COORD_SECTION
1 23.807556 97.457571
2 29.796751 65.864998
3 50.027089 7.930439
4 93.521731 36.629785
5 61.115352 58.740059
6 3.486468 33.974100
7 95.817166 95.783718
8 69.600536 24.803808
9 68.812527 89.976806
10 10.656078 32.419359
11 51.781514 43.993997
12 19.693774 80.161178
13 8.047196 99.618534
14 90.973931 43.195967
15 15.292959 24.496820
16 28.704958 20.230155
17 68.099087 58.397450
18 62.779097 29.986985
19 29.917758 97.507106
20 89.367571 44.381785
EOF
